34
100
80	3
79	1
78	1
76	1
71	1
69	3
68	1
65	3
64	1
63	1
60	1
59	1
58	2
56	1
55	2
54	2
51	1
50	1
49	1
48	1
46	1
41	1
40	1
39	4
38	1
36	3
34	1
33	1
32	1
30	1
27	2
22	2
21	1
20	1
